(set-logic HORN)
(set-info :source |
  Benchmark: test_safe_2019/termination/foldr.5.ml
  Generated by MoCHi
|)
(set-info :status unknown)
(declare-fun |fail_15589[87:0]| ( Int) Bool)
(declare-fun |foldr[58:7][80:7]| ( Bool  Int  Int  Int  Bool  Int  Int  Bool  Int  Int  Int  Bool  Int  Int  Int) Bool)
(declare-fun |foldr[61:7][78:7]| ( Bool  Int  Int  Int  Bool  Int  Int  Bool  Int  Int  Int  Bool  Int  Int  Int) Bool)
(declare-fun |foldr[64:16][67:0]| ( Bool  Int  Int  Int  Bool  Int  Int  Bool  Int  Int  Int  Bool  Int  Int  Int  Int) Bool)
(declare-fun |foldr[64:15]| ( Bool  Int  Int  Int  Bool  Int  Int  Bool  Int  Int  Int  Bool  Int  Int  Int) Bool)
(declare-fun |foldr[61:15]| ( Bool  Int  Int  Int  Bool  Int  Int  Bool  Int  Int  Int  Bool  Int  Int  Int) Bool)
(declare-fun |foldr[58:15]| ( Bool  Int  Int  Int  Bool  Int  Int  Bool  Int  Int  Int  Bool  Int  Int  Int) Bool)
(assert (not (exists ((x0 Int)) (|fail_15589[87:0]| x0))))
(assert (forall ((x0 Int)(x5 Bool)(x6 Int)(x7 Int)(x1 Int)(x3 Int)(x4 Int)(x2 Int)) (=> (|foldr[58:7][80:7]| false 0 0 0 false 0 0 x5 x6 x7 x1 true x3 x4 x2) (|fail_15589[87:0]| x0))))
(assert (forall ((x0 Bool)(x1 Int)(x2 Int)(x3 Int)(x4 Bool)(x5 Int)(x6 Int)(x15 Bool)(x16 Int)(x17 Int)(x18 Int)(x19 Bool)(x20 Int)(x21 Int)(x22 Int)(x11 Int)(x7 Bool)(x8 Int)(x9 Int)(x10 Int)(x12 Bool)(x13 Int)(x14 Int)) (=> (and (|foldr[58:15]| x0 x1 x2 x3 x4 x5 x6 x7 x8 x9 x10 x12 x13 x14 x11) (and (|foldr[61:7][78:7]| x12 x13 x14 0 x12 x13 x14 x15 x16 x17 x18 x19 x20 x21 x22) (not (= x11 0)))) (|foldr[58:7][80:7]| x0 x1 x2 x3 x4 x5 x6 x15 x16 x17 x18 x19 x20 x21 x22))))
(assert (forall ((x14 Bool)(x13 Int)(x12 Int)(x1 Int)(x11 Bool)(x10 Int)(x9 Int)(x15 Bool)(x16 Int)(x17 Int)(x18 Int)(x19 Bool)(x20 Int)(x21 Int)(x22 Int)(var120 Int)(x2 Int)(x0 Int)(x8 Bool)(x7 Int)(x6 Int)) (=> (and (|foldr[64:16][67:0]| x19 x20 x21 0 x19 x20 x21 x19 x20 x21 x0 x19 x20 x21 var120 x22) (and (|foldr[61:15]| x14 x13 x12 x1 x11 x10 x9 x8 x7 x6 x0 x19 x20 x21 x2) (and (= (+ 1 var120) x2) (and (not (= x2 0)) (and (= x20 x16) (and (= x21 x17) (= x19 x15))))))) (|foldr[61:7][78:7]| x14 x13 x12 x1 x11 x10 x9 x15 x16 x17 x18 x19 x20 x21 x22))))
(assert (forall ((x1 Bool)(x2 Int)(x3 Int)(x4 Int)(x5 Bool)(x6 Int)(x7 Int)(x8 Bool)(x9 Int)(x10 Int)(x11 Int)(x12 Bool)(x13 Int)(x14 Int)(x15 Int)(x0 Int)) (=> (and (|foldr[64:15]| x1 x2 x3 x4 x5 x6 x7 x8 x9 x10 x11 x12 x13 x14 x15) (and (= x15 0) (= x0 x11))) (|foldr[64:16][67:0]| x1 x2 x3 x4 x5 x6 x7 x8 x9 x10 x11 x12 x13 x14 x15 x0))))
(assert (forall ((x22 Bool)(x23 Int)(x24 Int)(x0 Int)(x8 Bool)(x5 Int)(x2 Int)(x9 Bool)(x6 Int)(x3 Int)(x21 Int)(x10 Bool)(x7 Int)(x4 Int)(x1 Int)(x25 Int)(x11 Bool)(x12 Int)(x13 Int)(x14 Int)(x15 Bool)(x16 Int)(x17 Int)(x18 Bool)(x19 Int)(x20 Int)) (=> (and (|foldr[61:15]| x11 x12 x13 x14 x15 x16 x17 x18 x19 x20 x21 x22 x23 x24 x25) (and (= x0 0) (and (= (+ 1 x1) x25) (and (not (= x25 0)) (and (= x24 x2) (and (= x24 x3) (and (= x24 x4) (and (= x23 x5) (and (= x23 x6) (and (= x23 x7) (and (= x22 x8) (and (= x22 x9) (= x22 x10))))))))))))) (|foldr[64:15]| x22 x23 x24 x0 x8 x5 x2 x9 x6 x3 x21 x10 x7 x4 x1))))
(assert (forall ((x22 Bool)(x23 Int)(x24 Int)(x0 Int)(x8 Bool)(x5 Int)(x2 Int)(x9 Bool)(x6 Int)(x3 Int)(x21 Int)(x10 Bool)(x7 Int)(x4 Int)(x1 Int)(x25 Int)(x11 Bool)(x12 Int)(x13 Int)(x14 Int)(x15 Bool)(x16 Int)(x17 Int)(x18 Bool)(x19 Int)(x20 Int)) (=> (and (|foldr[58:15]| x11 x12 x13 x14 x15 x16 x17 x18 x19 x20 x21 x22 x23 x24 x25) (and (= x0 0) (and (= (+ 1 x1) x25) (and (not (= x25 0)) (and (= x24 x2) (and (= x24 x3) (and (= x24 x4) (and (= x23 x5) (and (= x23 x6) (and (= x23 x7) (and (= x22 x8) (and (= x22 x9) (= x22 x10))))))))))))) (|foldr[61:15]| x22 x23 x24 x0 x8 x5 x2 x9 x6 x3 x21 x10 x7 x4 x1))))
(assert (forall ((x13 Bool)(x11 Int)(x12 Int)(x0 Int)(x7 Bool)(x4 Int)(x1 Int)(x8 Bool)(x5 Int)(x2 Int)(x15 Int)(x9 Bool)(x6 Int)(x3 Int)(x10 Int)) (=> (and (= x0 0) (and (= x11 0) (and (= x12 0) (and (>= x10 0) (and (= x4 x5) (and (= x4 x11) (and (= x4 x6) (and (= x1 x2) (and (= x1 x12) (and (= x1 x3) (and (not x13) (and (= x7 x8) (and (not x7) (= x7 x9)))))))))))))) (|foldr[58:15]| x13 x11 x12 x0 x7 x4 x1 x8 x5 x2 x15 x9 x6 x3 x10))))
(check-sat)
(get-model)
(exit)
